serverCount = 10;
virtualizedServiceCount = 20;
virtualizedServiceResourceUsages = 
  [|   6,  4, 10,  8,  8,  4,  1,  1,  7,  1,  3,  6,  8,  2,  5,  6, 10,  6,  6,  4,
   |   5,  1,  6,  5,  5,  4,  6,  2,  3,  7,  4,  6,  3,  4,  2,  3,  5,  4,  5,  3,
   |  10,  8,  8,  9,  9,  2,  9,  8,  7,  4,  6,  6,  6,  6,  2,  9,  2,  9,  7,  5,
   |   8,  7,  7,  8,  2,  4,  3,  2,  5,  2,  3,  9,  6,  4, 10,  6,  8,  9,  7,  8,
   |   9, 10,  3,  2,  2,  4,  6,  2,  8,  4, 10,  4,  7,  8,  7,  6,  9,  4,  2,  1,
   |   5,  1,  5,  5,  9, 10,  5,  1,  7,  3,  8,  6,  6,  8,  5,  7,  6,  4,  9,  7,
   |  10,  1,  8,  2,  9,  9,  2,  9,  6,  8,  9,  3,  1,  6,  8,  5,  2,  7, 10,  4,
   |   2,  5,  5, 10,  9,  9,  9,  6,  3,  9, 10,  7,  1, 10,  6,  4,  3,  6,  2,  5,
   |   8,  3,  8,  7,  2,  4,  3,  7, 10,  6,  7,  9,  9,  1,  1,  1,  1,  4,  6,  4,
   |   1,  6, 10,  2, 10,  9,  5,  8, 10,  9,  3,  5,  7,  9,  7,  2,  3,  3,  5,  9,
   |];

serverCapacities = 
[
  25,
  25,
  25,
  25,
  25,
  25,
  25,
  25,
  25,
  25
];

allocationCosts =
  [|   14,  22,  20,  25,  21,  12,  11,  19,  24,  13,  11,  22,  21,  24,   3,  22,  22,  15,  18,   8,
   |    3,  25,  22,   5,   8,  25,  22,   1,  16,   1,  17,  23,  20,  24,   4,   5,   2,  13,  25,  15,
   |    5,  19,  14,  14,  24,  20,  15,  11,  15,   6,  12,  10,   1,   9,   1,   9,   3,  11,  17,   3,
   |   14,  20,  24,   9,  22,  16,  21,  22,  24,   2,  20,  21,   9,  21,   4,  11,  23,   6,  11,  23,
   |   24,  23,  16,   5,   5,   3,  22,   3,  22,   5,  24,  23,  14,  12,  24,   3,  17,  25,   2,  23,
   |   25,   2,  12,  23,   8,   7,  16,  12,   5,  12,  22,   3,   7,  24,  19,   6,   2,  12,  24,  19,
   |    1,  19,   7,  20,   7,  13,  18,  23,  10,  24,  23,  22,  22,   6,  11,  23,   2,   7,  12,  24,
   |   22,  23,  20,  13,  11,   9,  24,  18,  23,   1,  21,   5,  17,   6,  15,   7,   1,  11,  16,   8,
   |   19,  17,   4,   2,  21,  13,  21,   1,   7,  20,   7,   8,   6,   5,   6,  15,  23,  23,   2,   3,
   |   16,  18,  25,  11,  24,  13,  21,   8,  18,   3,   3,  25,   3,  24,   9,  14,   6,   9,   3,  14,
   |];

lambda = 5;
sla = 0.9;
requestTypeCount = 1;
requestTypeSizes = 
[
  5
];
